;; Original file: ts_163.smt2
(set-logic HORN)
(declare-fun inv (Real Real Real Real) Bool)
(declare-fun fail () Bool)
(assert (forall ((x Real) (y Real) (z Real) (i Real))
  (=> (and (= y 100) (= z 1) (> x 0) (>= i x)) (inv x y z i))))
(assert (forall ((x Real) (y Real) (z Real) (i Real) (x1 Real) (y1 Real) (z1 Real) (i1 Real))
  (=> (and (inv x y z i)
           (> x 0)
           (= x1 (- x y))
           (= y1 (- y z))
           (= z1 (- z))
           (= i1 (- i 1)))
      (inv x1 y1 z1 i1))))
(assert (forall ((y Real) (z Real) (x Real) (i Real))
  (=> (and (inv x y z i) (> x 0) (< i 0)) false)))

(check-sat)
(exit)
